c 1 10
c 2 11
c 3 12
c 4 13
c 5 20
c 6 21
c 7 22
c 8 23
c 9 30
c 10 31
c 11 32
c 12 33
c 13 40
c 14 41
c 15 42
c 16 43
c 17 50
c 18 51
c 19 52
c 20 53
c 21 60
c 22 61
c 23 62
c 24 63
c 25 70
c 26 71
c 27 72
c 28 73
c 29 80
c 30 81
c 31 82
c 32 83
p cnf 32 56
1 2 3 4 0
-1 -2 0
-1 -3 0
-1 -4 0
-2 -3 0
-2 -4 0
-3 -4 0
5 6 7 8 0
-5 -6 0
-5 -7 0
-5 -8 0
-6 -7 0
-6 -8 0
-7 -8 0
9 10 11 12 0
-9 -10 0
-9 -11 0
-9 -12 0
-10 -11 0
-10 -12 0
-11 -12 0
13 14 15 16 0
-13 -14 0
-13 -15 0
-13 -16 0
-14 -15 0
-14 -16 0
-15 -16 0
17 18 19 20 0
-17 -18 0
-17 -19 0
-17 -20 0
-18 -19 0
-18 -20 0
-19 -20 0
21 22 23 24 0
-21 -22 0
-21 -23 0
-21 -24 0
-22 -23 0
-22 -24 0
-23 -24 0
25 26 27 28 0
-25 -26 0
-25 -27 0
-25 -28 0
-26 -27 0
-26 -28 0
-27 -28 0
29 30 31 32 0
-29 -30 0
-29 -31 0
-29 -32 0
-30 -31 0
-30 -32 0
-31 -32 0
